Fe  O  Y                                
   1.0000000000000000     
    12.3563003540000000    0.0000000000000000    0.0000000000000000
     0.0000000000000000   12.3563003540000000    0.0000000000000000
     0.0000000000000000    0.0000000000000000   32.0226801208789951
   Fe   O    Y 
    40    96    24
Selective dynamics
Direct
  0.0038605736085642  0.9865765361008352  0.3218379713322111   T   T   T
  0.0000000000000000  0.5000000000000000  0.5052091241560959   F   F   F
  0.4961394263914358  0.4865765361008352  0.3218379713322111   T   T   T
  0.5000000000000000  0.0000000000000000  0.5052091241560959   F   F   F
  0.2500000000000000  0.2500000000000000  0.6016743505780937   F   F   F
  0.7526097371206038  0.7474603133642961  0.4118312228602398   T   T   T
  0.7500000000000000  0.7500000000000000  0.6016743505780937   F   F   F
  0.2526097371206038  0.2525396866357040  0.4118312228602398   T   T   T
  0.2473902628793963  0.7525396866357039  0.4118312228602398   T   T   T
  0.7500000000000000  0.2500000000000000  0.6016743505780937   F   F   F
  0.7473902628793962  0.2474603133642960  0.4118312228602398   T   T   T
  0.2500000000000000  0.7500000000000000  0.6016743505780937   F   F   F
  0.5000000000000000  0.5000000000000000  0.5052091241560959   F   F   F
  0.5038605736085642  0.0134234638991648  0.3218379713322111   T   T   T
  0.0000000000000000  0.0000000000000000  0.5052091241560959   F   F   F
  0.9961394263914358  0.5134234638991648  0.3218379713322111   T   T   T
  0.0000000000000000  0.2500000000000000  0.4584589111525953   T   T   T
  0.0000000000000000  0.7500000000000000  0.5534417373670948   F   F   F
  0.0000000000000000  0.7500000000000000  0.3599595436978594   T   T   T
  0.0000000000000000  0.2500000000000000  0.6499069637890997   F   F   F
  0.5000000000000000  0.2500000000000000  0.5534417373670948   F   F   F
  0.5000000000000000  0.7500000000000000  0.4584589111525953   T   T   T
  0.5000000000000000  0.7500000000000000  0.6499069637890997   F   F   F
  0.5000000000000000  0.2500000000000000  0.3599595436978594   T   T   T
  0.3750874563494012  0.9986138408513001  0.4100162143037278   T   T   T
  0.6250000000000000  0.0000000000000000  0.6016743505780937   F   F   F
  0.1250000000000000  0.0000000000000000  0.6016743505780937   F   F   F
  0.8750874563494012  0.0013861591486998  0.4100162143037278   T   T   T
  0.6249125436505988  0.5013861591486999  0.4100162143037278   T   T   T
  0.3750000000000000  0.5000000000000000  0.6016743505780937   F   F   F
  0.8750000000000000  0.5000000000000000  0.6016743505780937   F   F   F
  0.1249125436505988  0.4986138408513002  0.4100162143037278   T   T   T
  0.2373084110663355  0.3890518645526750  0.3193682076334709   T   T   T
  0.7373084110663355  0.6109481354473179  0.3193682076334709   T   T   T
  0.7626915889336645  0.1109481354473250  0.3193682076334709   T   T   T
  0.2626915889336646  0.8890518645526821  0.3193682076334709   T   T   T
  0.2500000000000000  0.6250000000000000  0.5052091241560959   F   F   F
  0.7500000000000000  0.3750000000000000  0.5052091241560959   F   F   F
  0.7500000000000000  0.8750000000000000  0.5052091241560959   F   F   F
  0.2500000000000000  0.1250000000000000  0.5052091241560959   F   F   F
  0.0568000000000026  0.1503999979999975  0.6749735603298048   F   F   T
  0.9431999919999967  0.8496000170000002  0.3226969161515214   F   F   F
  0.9431999919999967  0.6503999829999998  0.5156273724682805   F   F   F
  0.0568000000000026  0.3496000170000002  0.4947908758439041   F   F   F
  0.5568000080000033  0.3496000170000002  0.3226969161515214   F   F   F
  0.4431999919999967  0.6503999829999998  0.6749735603298048   F   F   T
  0.4431999919999967  0.8496000170000002  0.4947908758439041   F   F   F
  0.5568000080000033  0.1503999979999975  0.5156273724682805   F   F   F
  0.9729999899999981  0.0568000000000026  0.3703121507558436   F   F   F
  0.0270000009999976  0.9431999919999967  0.6401061033442588   F   F   F
  0.5270000100000019  0.9431999919999967  0.5632425978119358   F   F   F
  0.4729999899999981  0.0568000000000026  0.4471756505002489   F   F   F
  0.0270000009999976  0.5568000080000033  0.4471756505002489   F   F   F
  0.9729999899999981  0.4431999919999967  0.5632425978119358   F   F   F
  0.4729999899999981  0.4431999919999967  0.6401061033442588   F   F   F
  0.5270000100000019  0.5568000080000033  0.3703121507558436   F   F   F
  0.1503999979999975  0.9729999899999981  0.3341955707551634   F   F   F
  0.8496000170000002  0.0270000009999976  0.6703448105062132   F   F   T
  0.6503999829999998  0.5270000100000019  0.6703448105062132   F   F   T
  0.3496000170000002  0.4729999899999981  0.3341955707551634   F   F   F
  0.3496000170000002  0.0270000009999976  0.5271260266860622   F   F   F
  0.6503999829999998  0.9729999899999981  0.4832922216261295   F   F   F
  0.8496000170000002  0.4729999899999981  0.4832922216261295   F   F   F
  0.1503999979999975  0.5270000100000019  0.5271260266860622   F   F   F
  0.2230000050000029  0.0996000020000025  0.6235912531080601   F   F   F
  0.7770000100000019  0.9003999829999998  0.3868269952041246   F   F   F
  0.7770000100000019  0.5996000170000002  0.5797574480481273   F   F   F
  0.2230000050000029  0.4003999829999998  0.4306608002640573   F   F   F
  0.2770000100000019  0.9003999829999998  0.4306608002640573   F   F   F
  0.7229999899999981  0.0996000020000025  0.5797574480481273   F   F   F
  0.7229999899999981  0.4003999829999998  0.3868269952041246   F   F   F
  0.2770000100000019  0.5996000170000002  0.6235912531080601   F   F   F
  0.4003999829999998  0.1931999919999967  0.5912561022659091   F   F   F
  0.5996000170000002  0.8068000080000033  0.4191621460462756   F   F   F
  0.9003999829999998  0.3068000080000033  0.4191621460462756   F   F   F
  0.0996000020000025  0.6931999919999967  0.5912561022659091   F   F   F
  0.5996000170000002  0.6931999919999967  0.6120925988902854   F   F   F
  0.4003999829999998  0.3068000080000033  0.3983256552098169   F   F   F
  0.0996000020000025  0.8068000080000033  0.3983256552098169   F   F   F
  0.9003999829999998  0.1931999919999967  0.6120925988902854   F   F   F
  0.3068000080000033  0.2770000100000019  0.6493664812006013   F   F   T
  0.6931999919999967  0.7229999899999981  0.3507104182903333   F   F   F
  0.1931999919999967  0.7229999899999981  0.4667773713899308   F   F   F
  0.8068000080000033  0.2770000100000019  0.5436408769222538   F   F   F
  0.8068000080000033  0.2230000050000029  0.3507104182903333   F   F   F
  0.1931999919999967  0.7770000100000019  0.6493664812006013   F   F   T
  0.6931999919999967  0.7770000100000019  0.5436408769222538   F   F   F
  0.3068000080000033  0.2230000050000029  0.4667773713899308   F   F   F
  0.5568000080000033  0.6503999829999998  0.4947908758439041   F   F   F
  0.4431999919999967  0.3496000170000002  0.5156273724682805   F   F   F
  0.4431999919999967  0.1503999979999975  0.3226969161515214   F   F   F
  0.5568000080000033  0.8496000170000002  0.6749735603298048   F   F   T
  0.0568000000000026  0.8496000170000002  0.5156273724682805   F   F   F
  0.9431999919999967  0.1503999979999975  0.4947908758439041   F   F   F
  0.9431999919999967  0.3496000170000002  0.6749735603298048   F   F   T
  0.0568000000000026  0.6503999829999998  0.3226969161515214   F   F   F
  0.4729999899999981  0.5568000080000033  0.5632425978119358   F   F   F
  0.5270000100000019  0.4431999919999967  0.4471756505002489   F   F   F
  0.0270000009999976  0.4431999919999967  0.3703121507558436   F   F   F
  0.9729999899999981  0.5568000080000033  0.6401061033442588   F   F   F
  0.5270000100000019  0.0568000000000026  0.6401061033442588   F   F   F
  0.4729999899999981  0.9431999919999967  0.3703121507558436   F   F   F
  0.9729999899999981  0.9431999919999967  0.4471756505002489   F   F   F
  0.0270000009999976  0.0568000000000026  0.5632425978119358   F   F   F
  0.6503999829999998  0.4729999899999981  0.5271260266860622   F   F   F
  0.3496000170000002  0.5270000100000019  0.4832922216261295   F   F   F
  0.1503999979999975  0.0270000009999976  0.4832922216261295   F   F   F
  0.8496000170000002  0.9729999899999981  0.5271260266860622   F   F   F
  0.8496000170000002  0.5270000100000019  0.3341955707551634   F   F   F
  0.1503999979999975  0.4729999899999981  0.6703448105062132   F   F   T
  0.3496000170000002  0.9729999899999981  0.6703448105062132   F   F   T
  0.6503999829999998  0.0270000009999976  0.3341955707551634   F   F   F
  0.7229999899999981  0.5996000170000002  0.4306608002640573   F   F   F
  0.2770000100000019  0.4003999829999998  0.5797574480481273   F   F   F
  0.2770000100000019  0.0996000020000025  0.3868269952041246   F   F   F
  0.7229999899999981  0.9003999829999998  0.6235912531080601   F   F   F
  0.7770000100000019  0.4003999829999998  0.6235912531080601   F   F   F
  0.2230000050000029  0.5996000170000002  0.3868269952041246   F   F   F
  0.2230000050000029  0.9003999829999998  0.5797574480481273   F   F   F
  0.7770000100000019  0.0996000020000025  0.4306608002640573   F   F   F
  0.9003999829999998  0.6931999919999967  0.3983256552098169   F   F   F
  0.0996000020000025  0.3068000080000033  0.6120925988902854   F   F   F
  0.4003999829999998  0.8068000080000033  0.6120925988902854   F   F   F
  0.5996000170000002  0.1931999919999967  0.3983256552098169   F   F   F
  0.0996000020000025  0.1931999919999967  0.4191621460462756   F   F   F
  0.9003999829999998  0.8068000080000033  0.5912561022659091   F   F   F
  0.5996000170000002  0.3068000080000033  0.5912561022659091   F   F   F
  0.4003999829999998  0.6931999919999967  0.4191621460462756   F   F   F
  0.8068000080000033  0.7770000100000019  0.4667773713899308   F   F   F
  0.1931999919999967  0.2230000050000029  0.5436408769222538   F   F   F
  0.6931999919999967  0.2230000050000029  0.6493664812006013   F   F   T
  0.3068000080000033  0.7770000100000019  0.3507104182903333   F   F   F
  0.3068000080000033  0.7229999899999981  0.5436408769222538   F   F   F
  0.6931999919999967  0.2770000100000019  0.4667773713899308   F   F   F
  0.1931999919999967  0.2770000100000019  0.3507104182903333   F   F   F
  0.8068000080000033  0.7229999899999981  0.6493664812006013   F   F   T
  0.0000000000000000  0.2500000000000000  0.3657956526167611   T   T   T
  0.0000000000000000  0.7500000000000000  0.6499069637890997   F   F   F
  0.0000000000000000  0.7500000000000000  0.4578695171057340   T   T   T
  0.0000000000000000  0.2500000000000000  0.5534417373670948   F   F   F
  0.5000000000000000  0.2500000000000000  0.6499069637890997   F   F   F
  0.5000000000000000  0.7500000000000000  0.3657956526167611   T   T   T
  0.5000000000000000  0.7500000000000000  0.5534417373670948   F   F   F
  0.5000000000000000  0.2500000000000000  0.4578695171057340   T   T   T
  0.1254965577965373  0.9993208361566931  0.4124703499097517   T   T   T
  0.8750000000000000  0.0000000000000000  0.6016743505780937   F   F   F
  0.3750000000000000  0.0000000000000000  0.6016743505780937   F   F   F
  0.6254965577965372  0.0006791638433069  0.4124703499097517   T   T   T
  0.8745034422034628  0.5006791638433069  0.4124703499097517   T   T   T
  0.1250000000000000  0.5000000000000000  0.6016743505780937   F   F   F
  0.6250000000000000  0.5000000000000000  0.6016743505780937   F   F   F
  0.3745034422034628  0.4993208361566931  0.4124703499097517   T   T   T
  0.2693369071954382  0.1306770040589711  0.3221934196521311   T   T   T
  0.7693369071954382  0.8693229959410289  0.3221934196521311   T   T   T
  0.7306630928045618  0.3693229959410289  0.3221934196521311   T   T   T
  0.2306630928045617  0.6306770040589711  0.3221934196521311   T   T   T
  0.2500000000000000  0.8750000000000000  0.5052091241560959   F   F   F
  0.7500000000000000  0.1250000000000000  0.5052091241560959   F   F   F
  0.7500000000000000  0.6250000000000000  0.5052091241560959   F   F   F
  0.2500000000000000  0.3750000000000000  0.5052091241560959   F   F   F

  0.00000000E+00  0.00000000E+00  0.00000000E+00
  0.00000000E+00  0.00000000E+00  0.00000000E+00
  0.00000000E+00  0.00000000E+00  0.00000000E+00
  0.00000000E+00  0.00000000E+00  0.00000000E+00
  0.00000000E+00  0.00000000E+00  0.00000000E+00
  0.00000000E+00  0.00000000E+00  0.00000000E+00
  0.00000000E+00  0.00000000E+00  0.00000000E+00
  0.00000000E+00  0.00000000E+00  0.00000000E+00
  0.00000000E+00  0.00000000E+00  0.00000000E+00
  0.00000000E+00  0.00000000E+00  0.00000000E+00
  0.00000000E+00  0.00000000E+00  0.00000000E+00
  0.00000000E+00  0.00000000E+00  0.00000000E+00
  0.00000000E+00  0.00000000E+00  0.00000000E+00
  0.00000000E+00  0.00000000E+00  0.00000000E+00
  0.00000000E+00  0.00000000E+00  0.00000000E+00
  0.00000000E+00  0.00000000E+00  0.00000000E+00
  0.00000000E+00  0.00000000E+00  0.00000000E+00
  0.00000000E+00  0.00000000E+00  0.00000000E+00
  0.00000000E+00  0.00000000E+00  0.00000000E+00
  0.00000000E+00  0.00000000E+00  0.00000000E+00
  0.00000000E+00  0.00000000E+00  0.00000000E+00
  0.00000000E+00  0.00000000E+00  0.00000000E+00
  0.00000000E+00  0.00000000E+00  0.00000000E+00
  0.00000000E+00  0.00000000E+00  0.00000000E+00
  0.00000000E+00  0.00000000E+00  0.00000000E+00
  0.00000000E+00  0.00000000E+00  0.00000000E+00
  0.00000000E+00  0.00000000E+00  0.00000000E+00
  0.00000000E+00  0.00000000E+00  0.00000000E+00
  0.00000000E+00  0.00000000E+00  0.00000000E+00
  0.00000000E+00  0.00000000E+00  0.00000000E+00
  0.00000000E+00  0.00000000E+00  0.00000000E+00
  0.00000000E+00  0.00000000E+00  0.00000000E+00
  0.00000000E+00  0.00000000E+00  0.00000000E+00
  0.00000000E+00  0.00000000E+00  0.00000000E+00
  0.00000000E+00  0.00000000E+00  0.00000000E+00
  0.00000000E+00  0.00000000E+00  0.00000000E+00
  0.00000000E+00  0.00000000E+00  0.00000000E+00
  0.00000000E+00  0.00000000E+00  0.00000000E+00
  0.00000000E+00  0.00000000E+00  0.00000000E+00
  0.00000000E+00  0.00000000E+00  0.00000000E+00
  0.00000000E+00  0.00000000E+00  0.00000000E+00
  0.00000000E+00  0.00000000E+00  0.00000000E+00
  0.00000000E+00  0.00000000E+00  0.00000000E+00
  0.00000000E+00  0.00000000E+00  0.00000000E+00
  0.00000000E+00  0.00000000E+00  0.00000000E+00
  0.00000000E+00  0.00000000E+00  0.00000000E+00
  0.00000000E+00  0.00000000E+00  0.00000000E+00
  0.00000000E+00  0.00000000E+00  0.00000000E+00
  0.00000000E+00  0.00000000E+00  0.00000000E+00
  0.00000000E+00  0.00000000E+00  0.00000000E+00
  0.00000000E+00  0.00000000E+00  0.00000000E+00
  0.00000000E+00  0.00000000E+00  0.00000000E+00
  0.00000000E+00  0.00000000E+00  0.00000000E+00
  0.00000000E+00  0.00000000E+00  0.00000000E+00
  0.00000000E+00  0.00000000E+00  0.00000000E+00
  0.00000000E+00  0.00000000E+00  0.00000000E+00
  0.00000000E+00  0.00000000E+00  0.00000000E+00
  0.00000000E+00  0.00000000E+00  0.00000000E+00
  0.00000000E+00  0.00000000E+00  0.00000000E+00
  0.00000000E+00  0.00000000E+00  0.00000000E+00
  0.00000000E+00  0.00000000E+00  0.00000000E+00
  0.00000000E+00  0.00000000E+00  0.00000000E+00
  0.00000000E+00  0.00000000E+00  0.00000000E+00
  0.00000000E+00  0.00000000E+00  0.00000000E+00
  0.00000000E+00  0.00000000E+00  0.00000000E+00
  0.00000000E+00  0.00000000E+00  0.00000000E+00
  0.00000000E+00  0.00000000E+00  0.00000000E+00
  0.00000000E+00  0.00000000E+00  0.00000000E+00
  0.00000000E+00  0.00000000E+00  0.00000000E+00
  0.00000000E+00  0.00000000E+00  0.00000000E+00
  0.00000000E+00  0.00000000E+00  0.00000000E+00
  0.00000000E+00  0.00000000E+00  0.00000000E+00
  0.00000000E+00  0.00000000E+00  0.00000000E+00
  0.00000000E+00  0.00000000E+00  0.00000000E+00
  0.00000000E+00  0.00000000E+00  0.00000000E+00
  0.00000000E+00  0.00000000E+00  0.00000000E+00
  0.00000000E+00  0.00000000E+00  0.00000000E+00
  0.00000000E+00  0.00000000E+00  0.00000000E+00
  0.00000000E+00  0.00000000E+00  0.00000000E+00
  0.00000000E+00  0.00000000E+00  0.00000000E+00
  0.00000000E+00  0.00000000E+00  0.00000000E+00
  0.00000000E+00  0.00000000E+00  0.00000000E+00
  0.00000000E+00  0.00000000E+00  0.00000000E+00
  0.00000000E+00  0.00000000E+00  0.00000000E+00
  0.00000000E+00  0.00000000E+00  0.00000000E+00
  0.00000000E+00  0.00000000E+00  0.00000000E+00
  0.00000000E+00  0.00000000E+00  0.00000000E+00
  0.00000000E+00  0.00000000E+00  0.00000000E+00
  0.00000000E+00  0.00000000E+00  0.00000000E+00
  0.00000000E+00  0.00000000E+00  0.00000000E+00
  0.00000000E+00  0.00000000E+00  0.00000000E+00
  0.00000000E+00  0.00000000E+00  0.00000000E+00
  0.00000000E+00  0.00000000E+00  0.00000000E+00
  0.00000000E+00  0.00000000E+00  0.00000000E+00
  0.00000000E+00  0.00000000E+00  0.00000000E+00
  0.00000000E+00  0.00000000E+00  0.00000000E+00
  0.00000000E+00  0.00000000E+00  0.00000000E+00
  0.00000000E+00  0.00000000E+00  0.00000000E+00
  0.00000000E+00  0.00000000E+00  0.00000000E+00
  0.00000000E+00  0.00000000E+00  0.00000000E+00
  0.00000000E+00  0.00000000E+00  0.00000000E+00
  0.00000000E+00  0.00000000E+00  0.00000000E+00
  0.00000000E+00  0.00000000E+00  0.00000000E+00
  0.00000000E+00  0.00000000E+00  0.00000000E+00
  0.00000000E+00  0.00000000E+00  0.00000000E+00
  0.00000000E+00  0.00000000E+00  0.00000000E+00
  0.00000000E+00  0.00000000E+00  0.00000000E+00
  0.00000000E+00  0.00000000E+00  0.00000000E+00
  0.00000000E+00  0.00000000E+00  0.00000000E+00
  0.00000000E+00  0.00000000E+00  0.00000000E+00
  0.00000000E+00  0.00000000E+00  0.00000000E+00
  0.00000000E+00  0.00000000E+00  0.00000000E+00
  0.00000000E+00  0.00000000E+00  0.00000000E+00
  0.00000000E+00  0.00000000E+00  0.00000000E+00
  0.00000000E+00  0.00000000E+00  0.00000000E+00
  0.00000000E+00  0.00000000E+00  0.00000000E+00
  0.00000000E+00  0.00000000E+00  0.00000000E+00
  0.00000000E+00  0.00000000E+00  0.00000000E+00
  0.00000000E+00  0.00000000E+00  0.00000000E+00
  0.00000000E+00  0.00000000E+00  0.00000000E+00
  0.00000000E+00  0.00000000E+00  0.00000000E+00
  0.00000000E+00  0.00000000E+00  0.00000000E+00
  0.00000000E+00  0.00000000E+00  0.00000000E+00
  0.00000000E+00  0.00000000E+00  0.00000000E+00
  0.00000000E+00  0.00000000E+00  0.00000000E+00
  0.00000000E+00  0.00000000E+00  0.00000000E+00
  0.00000000E+00  0.00000000E+00  0.00000000E+00
  0.00000000E+00  0.00000000E+00  0.00000000E+00
  0.00000000E+00  0.00000000E+00  0.00000000E+00
  0.00000000E+00  0.00000000E+00  0.00000000E+00
  0.00000000E+00  0.00000000E+00  0.00000000E+00
  0.00000000E+00  0.00000000E+00  0.00000000E+00
  0.00000000E+00  0.00000000E+00  0.00000000E+00
  0.00000000E+00  0.00000000E+00  0.00000000E+00
  0.00000000E+00  0.00000000E+00  0.00000000E+00
  0.00000000E+00  0.00000000E+00  0.00000000E+00
  0.00000000E+00  0.00000000E+00  0.00000000E+00
  0.00000000E+00  0.00000000E+00  0.00000000E+00
  0.00000000E+00  0.00000000E+00  0.00000000E+00
  0.00000000E+00  0.00000000E+00  0.00000000E+00
  0.00000000E+00  0.00000000E+00  0.00000000E+00
  0.00000000E+00  0.00000000E+00  0.00000000E+00
  0.00000000E+00  0.00000000E+00  0.00000000E+00
  0.00000000E+00  0.00000000E+00  0.00000000E+00
  0.00000000E+00  0.00000000E+00  0.00000000E+00
  0.00000000E+00  0.00000000E+00  0.00000000E+00
  0.00000000E+00  0.00000000E+00  0.00000000E+00
  0.00000000E+00  0.00000000E+00  0.00000000E+00
  0.00000000E+00  0.00000000E+00  0.00000000E+00
  0.00000000E+00  0.00000000E+00  0.00000000E+00
  0.00000000E+00  0.00000000E+00  0.00000000E+00
  0.00000000E+00  0.00000000E+00  0.00000000E+00
  0.00000000E+00  0.00000000E+00  0.00000000E+00
  0.00000000E+00  0.00000000E+00  0.00000000E+00
  0.00000000E+00  0.00000000E+00  0.00000000E+00
  0.00000000E+00  0.00000000E+00  0.00000000E+00
  0.00000000E+00  0.00000000E+00  0.00000000E+00
  0.00000000E+00  0.00000000E+00  0.00000000E+00
  0.00000000E+00  0.00000000E+00  0.00000000E+00
  0.00000000E+00  0.00000000E+00  0.00000000E+00
